NAME profit_maximization
OBJSENSE MAX
ROWS
 N  OBJ
 G  R0      
 G  R1      
 G  R2      
 G  R3      
 G  R4      
 G  R5      
 G  R6      
 G  R7      
 G  Fraction_lower_bound_0
 L  Fraction_upper_bound_0
 E  R10     
 E  R11     
 E  Constr_Left_0_diff_aux_0
 E  Constr_Lost_0_diff_aux_0
 E  R14     
 E  Constr_Q1_plus_left_0
 E  Constr_Left_1_diff_aux_0
 E  Constr_Lost_1_diff_aux_0
 E  Profit_Constraint_0
 G  Fraction_lower_bound_1
 L  Fraction_upper_bound_1
 E  R21     
 E  R22     
 E  Constr_Left_0_diff_aux_1
 E  Constr_Lost_0_diff_aux_1
 E  R25     
 E  Constr_Q1_plus_left_1
 E  Constr_Left_1_diff_aux_1
 E  Constr_Lost_1_diff_aux_1
 E  Profit_Constraint_1
 G  Fraction_lower_bound_2
 L  Fraction_upper_bound_2
 E  R32     
 E  R33     
 E  Constr_Left_0_diff_aux_2
 E  Constr_Lost_0_diff_aux_2
 E  R36     
 E  Constr_Q1_plus_left_2
 E  Constr_Left_1_diff_aux_2
 E  Constr_Lost_1_diff_aux_2
 E  Profit_Constraint_2
 G  Fraction_lower_bound_3
 L  Fraction_upper_bound_3
 E  R43     
 E  R44     
 E  Constr_Left_0_diff_aux_3
 E  Constr_Lost_0_diff_aux_3
 E  R47     
 E  Constr_Q1_plus_left_3
 E  Constr_Left_1_diff_aux_3
 E  Constr_Lost_1_diff_aux_3
 E  Profit_Constraint_3
 G  Fraction_lower_bound_4
 L  Fraction_upper_bound_4
 E  R54     
 E  R55     
 E  Constr_Left_0_diff_aux_4
 E  Constr_Lost_0_diff_aux_4
 E  R58     
 E  Constr_Q1_plus_left_4
 E  Constr_Left_1_diff_aux_4
 E  Constr_Lost_1_diff_aux_4
 E  Profit_Constraint_4
 G  Fraction_lower_bound_5
 L  Fraction_upper_bound_5
 E  R65     
 E  R66     
 E  Constr_Left_0_diff_aux_5
 E  Constr_Lost_0_diff_aux_5
 E  R69     
 E  Constr_Q1_plus_left_5
 E  Constr_Left_1_diff_aux_5
 E  Constr_Lost_1_diff_aux_5
 E  Profit_Constraint_5
 G  Fraction_lower_bound_6
 L  Fraction_upper_bound_6
 E  R76     
 E  R77     
 E  Constr_Left_0_diff_aux_6
 E  Constr_Lost_0_diff_aux_6
 E  R80     
 E  Constr_Q1_plus_left_6
 E  Constr_Left_1_diff_aux_6
 E  Constr_Lost_1_diff_aux_6
 E  Profit_Constraint_6
 G  Fraction_lower_bound_7
 L  Fraction_upper_bound_7
 E  R87     
 E  R88     
 E  Constr_Left_0_diff_aux_7
 E  Constr_Lost_0_diff_aux_7
 E  R91     
 E  Constr_Q1_plus_left_7
 E  Constr_Left_1_diff_aux_7
 E  Constr_Lost_1_diff_aux_7
 E  Profit_Constraint_7
 G  Fraction_lower_bound_8
 L  Fraction_upper_bound_8
 E  R98     
 E  R99     
 E  Constr_Left_0_diff_aux_8
 E  Constr_Lost_0_diff_aux_8
 E  R102    
 E  Constr_Q1_plus_left_8
 E  Constr_Left_1_diff_aux_8
 E  Constr_Lost_1_diff_aux_8
 E  Profit_Constraint_8
 G  Fraction_lower_bound_9
 L  Fraction_upper_bound_9
 E  R109    
 E  R110    
 E  Constr_Left_0_diff_aux_9
 E  Constr_Lost_0_diff_aux_9
 E  R113    
 E  Constr_Q1_plus_left_9
 E  Constr_Left_1_diff_aux_9
 E  Constr_Lost_1_diff_aux_9
 E  Profit_Constraint_9
 G  Fraction_lower_bound_10
 L  Fraction_upper_bound_10
 E  R120    
 E  R121    
 E  Constr_Left_0_diff_aux_10
 E  Constr_Lost_0_diff_aux_10
 E  R124    
 E  Constr_Q1_plus_left_10
 E  Constr_Left_1_diff_aux_10
 E  Constr_Lost_1_diff_aux_10
 E  Profit_Constraint_10
 G  Fraction_lower_bound_11
 L  Fraction_upper_bound_11
 E  R131    
 E  R132    
 E  Constr_Left_0_diff_aux_11
 E  Constr_Lost_0_diff_aux_11
 E  R135    
 E  Constr_Q1_plus_left_11
 E  Constr_Left_1_diff_aux_11
 E  Constr_Lost_1_diff_aux_11
 E  Profit_Constraint_11
 G  Fraction_lower_bound_12
 L  Fraction_upper_bound_12
 E  R142    
 E  R143    
 E  Constr_Left_0_diff_aux_12
 E  Constr_Lost_0_diff_aux_12
 E  R146    
 E  Constr_Q1_plus_left_12
 E  Constr_Left_1_diff_aux_12
 E  Constr_Lost_1_diff_aux_12
 E  Profit_Constraint_12
 G  Fraction_lower_bound_13
 L  Fraction_upper_bound_13
 E  R153    
 E  R154    
 E  Constr_Left_0_diff_aux_13
 E  Constr_Lost_0_diff_aux_13
 E  R157    
 E  Constr_Q1_plus_left_13
 E  Constr_Left_1_diff_aux_13
 E  Constr_Lost_1_diff_aux_13
 E  Profit_Constraint_13
 G  Fraction_lower_bound_14
 L  Fraction_upper_bound_14
 E  R164    
 E  R165    
 E  Constr_Left_0_diff_aux_14
 E  Constr_Lost_0_diff_aux_14
 E  R168    
 E  Constr_Q1_plus_left_14
 E  Constr_Left_1_diff_aux_14
 E  Constr_Lost_1_diff_aux_14
 E  Profit_Constraint_14
COLUMNS
    C0(17)    R0        -1
    C0(17)    R1        1
    C0(17)    R10       -250
    C0(17)    R21       -250
    C0(17)    R32       -250
    C0(17)    R43       -250
    C0(17)    R54       -250
    C0(17)    R65       -250
    C0(17)    R76       -250
    C0(17)    R87       -250
    C0(17)    R98       -250
    C0(17)    R109      -250
    C0(17)    R120      -250
    C0(17)    R131      -250
    C0(17)    R142      -250
    C0(17)    R153      -250
    C0(17)    R164      -250
    C1(2)     R2        -1
    C1(2)     R3        1
    C2(17)    R4        -1
    C2(17)    R5        1
    C2(17)    R10       -6.31793916729104
    C2(17)    R21       -6.22075028232861
    C2(17)    R32       -7.3126591789305468e+00
    C2(17)    R43       -6.2763659026972274e+00
    C2(17)    R54       -6.3931647233601065e+00
    C2(17)    R65       -6.7374503413219280e+00
    C2(17)    R76       -7.64198645969587
    C2(17)    R87       -6.1942025515861223e+00
    C2(17)    R98       -7.6758898149976078e+00
    C2(17)    R109      -6.1921968157879261e+00
    C2(17)    R120      -7.9529189300267920e+00
    C2(17)    R131      -6.9373024032954032e+00
    C2(17)    R142      -7.9535221763806740e+00
    C2(17)    R153      -7.2096910394900924e+00
    C2(17)    R164      -7.4785271587966031e+00
    C3(17)    R6        -1
    C3(17)    R7        1
    C3(17)    R10       -1
    C3(17)    R21       -1
    C3(17)    R32       -1
    C3(17)    R43       -1
    C3(17)    R54       -1
    C3(17)    R65       -1
    C3(17)    R76       -1
    C3(17)    R87       -1
    C3(17)    R98       -1
    C3(17)    R109      -1
    C3(17)    R120      -1
    C3(17)    R131      -1
    C3(17)    R142      -1
    C3(17)    R153      -1
    C3(17)    R164      -1
    C4(2)     OBJ       -0.1
    C4(2)     R0        1
    C4(2)     R1        1
    C5(2)     OBJ       -0.1
    C5(2)     R2        1
    C5(2)     R3        1
    C6(2)     OBJ       -0.1
    C6(2)     R4        1
    C6(2)     R5        1
    C7(2)     OBJ       -0.1
    C7(2)     R6        1
    C7(2)     R7        1
    C8(2)     Constr_Left_0_diff_aux_0  1
    C8(2)     Profit_Constraint_0  -600
    C9(2)     Constr_Left_0_diff_aux_1  1
    C9(2)     Profit_Constraint_1  -600
    C10(2)    Constr_Left_0_diff_aux_2  1
    C10(2)    Profit_Constraint_2  -600
    C11(2)    Constr_Left_0_diff_aux_3  1
    C11(2)    Profit_Constraint_3  -600
    C12(2)    Constr_Left_0_diff_aux_4  1
    C12(2)    Profit_Constraint_4  -600
    C13(2)    Constr_Left_0_diff_aux_5  1
    C13(2)    Profit_Constraint_5  -600
    C14(2)    Constr_Left_0_diff_aux_6  1
    C14(2)    Profit_Constraint_6  -600
    C15(2)    Constr_Left_0_diff_aux_7  1
    C15(2)    Profit_Constraint_7  -600
    C16(2)    Constr_Left_0_diff_aux_8  1
    C16(2)    Profit_Constraint_8  -600
    C17(2)    Constr_Left_0_diff_aux_9  1
    C17(2)    Profit_Constraint_9  -600
    C18(2)    Constr_Left_0_diff_aux_10  1
    C18(2)    Profit_Constraint_10  -600
    C19(2)    Constr_Left_0_diff_aux_11  1
    C19(2)    Profit_Constraint_11  -600
    C20(2)    Constr_Left_0_diff_aux_12  1
    C20(2)    Profit_Constraint_12  -600
    C21(2)    Constr_Left_0_diff_aux_13  1
    C21(2)    Profit_Constraint_13  -600
    C22(2)    Constr_Left_0_diff_aux_14  1
    C22(2)    Profit_Constraint_14  -600
    C23(2)    Constr_Q1_plus_left_0  -1
    C23(2)    Profit_Constraint_0  400
    C24(2)    Constr_Q1_plus_left_1  -1
    C24(2)    Profit_Constraint_1  400
    C25(2)    Constr_Q1_plus_left_2  -1
    C25(2)    Profit_Constraint_2  400
    C26(2)    Constr_Q1_plus_left_3  -1
    C26(2)    Profit_Constraint_3  400
    C27(2)    Constr_Q1_plus_left_4  -1
    C27(2)    Profit_Constraint_4  400
    C28(2)    Constr_Q1_plus_left_5  -1
    C28(2)    Profit_Constraint_5  400
    C29(2)    Constr_Q1_plus_left_6  -1
    C29(2)    Profit_Constraint_6  400
    C30(2)    Constr_Q1_plus_left_7  -1
    C30(2)    Profit_Constraint_7  400
    C31(2)    Constr_Q1_plus_left_8  -1
    C31(2)    Profit_Constraint_8  400
    C32(2)    Constr_Q1_plus_left_9  -1
    C32(2)    Profit_Constraint_9  400
    C33(2)    Constr_Q1_plus_left_10  -1
    C33(2)    Profit_Constraint_10  400
    C34(2)    Constr_Q1_plus_left_11  -1
    C34(2)    Profit_Constraint_11  400
    C35(2)    Constr_Q1_plus_left_12  -1
    C35(2)    Profit_Constraint_12  400
    C36(2)    Constr_Q1_plus_left_13  -1
    C36(2)    Profit_Constraint_13  400
    C37(2)    Constr_Q1_plus_left_14  -1
    C37(2)    Profit_Constraint_14  400
    C38(1)    Profit_Constraint_0  600
    C39(1)    Profit_Constraint_1  600
    C40(1)    Profit_Constraint_2  600
    C41(1)    Profit_Constraint_3  600
    C42(1)    Profit_Constraint_4  600
    C43(1)    Profit_Constraint_5  600
    C44(1)    Profit_Constraint_6  600
    C45(1)    Profit_Constraint_7  600
    C46(1)    Profit_Constraint_8  600
    C47(1)    Profit_Constraint_9  600
    C48(1)    Profit_Constraint_10  600
    C49(1)    Profit_Constraint_11  600
    C50(1)    Profit_Constraint_12  600
    C51(1)    Profit_Constraint_13  600
    C52(1)    Profit_Constraint_14  600
    C53(2)    Constr_Left_1_diff_aux_0  1
    C53(2)    Profit_Constraint_0  -600
    C54(2)    Constr_Left_1_diff_aux_1  1
    C54(2)    Profit_Constraint_1  -600
    C55(2)    Constr_Left_1_diff_aux_2  1
    C55(2)    Profit_Constraint_2  -600
    C56(2)    Constr_Left_1_diff_aux_3  1
    C56(2)    Profit_Constraint_3  -600
    C57(2)    Constr_Left_1_diff_aux_4  1
    C57(2)    Profit_Constraint_4  -600
    C58(2)    Constr_Left_1_diff_aux_5  1
    C58(2)    Profit_Constraint_5  -600
    C59(2)    Constr_Left_1_diff_aux_6  1
    C59(2)    Profit_Constraint_6  -600
    C60(2)    Constr_Left_1_diff_aux_7  1
    C60(2)    Profit_Constraint_7  -600
    C61(2)    Constr_Left_1_diff_aux_8  1
    C61(2)    Profit_Constraint_8  -600
    C62(2)    Constr_Left_1_diff_aux_9  1
    C62(2)    Profit_Constraint_9  -600
    C63(2)    Constr_Left_1_diff_aux_10  1
    C63(2)    Profit_Constraint_10  -600
    C64(2)    Constr_Left_1_diff_aux_11  1
    C64(2)    Profit_Constraint_11  -600
    C65(2)    Constr_Left_1_diff_aux_12  1
    C65(2)    Profit_Constraint_12  -600
    C66(2)    Constr_Left_1_diff_aux_13  1
    C66(2)    Profit_Constraint_13  -600
    C67(2)    Constr_Left_1_diff_aux_14  1
    C67(2)    Profit_Constraint_14  -600
    C68(1)    Profit_Constraint_0  400
    C69(1)    Profit_Constraint_1  400
    C70(1)    Profit_Constraint_2  400
    C71(1)    Profit_Constraint_3  400
    C72(1)    Profit_Constraint_4  400
    C73(1)    Profit_Constraint_5  400
    C74(1)    Profit_Constraint_6  400
    C75(1)    Profit_Constraint_7  400
    C76(1)    Profit_Constraint_8  400
    C77(1)    Profit_Constraint_9  400
    C78(1)    Profit_Constraint_10  400
    C79(1)    Profit_Constraint_11  400
    C80(1)    Profit_Constraint_12  400
    C81(1)    Profit_Constraint_13  400
    C82(1)    Profit_Constraint_14  400
    C83(1)    Profit_Constraint_0  600
    C84(1)    Profit_Constraint_1  600
    C85(1)    Profit_Constraint_2  600
    C86(1)    Profit_Constraint_3  600
    C87(1)    Profit_Constraint_4  600
    C88(1)    Profit_Constraint_5  600
    C89(1)    Profit_Constraint_6  600
    C90(1)    Profit_Constraint_7  600
    C91(1)    Profit_Constraint_8  600
    C92(1)    Profit_Constraint_9  600
    C93(1)    Profit_Constraint_10  600
    C94(1)    Profit_Constraint_11  600
    C95(1)    Profit_Constraint_12  600
    C96(1)    Profit_Constraint_13  600
    C97(1)    Profit_Constraint_14  600
    C98(1)    R10       1
    C99(1)    R21       1
    C100(1)   R32       1
    C101(1)   R43       1
    C102(1)   R54       1
    C103(1)   R65       1
    C104(1)   R76       1
    C105(1)   R87       1
    C106(1)   R98       1
    C107(1)   R109      1
    C108(1)   R120      1
    C109(1)   R131      1
    C110(1)   R142      1
    C111(1)   R153      1
    C112(1)   R164      1
    C113(3)   Fraction_lower_bound_0  1
    C113(3)   Fraction_upper_bound_0  1
    C113(3)   R11       -2.4399501835724150e+03
    C114(3)   Fraction_lower_bound_1  1
    C114(3)   Fraction_upper_bound_1  1
    C114(3)   R22       -2.4399501835724150e+03
    C115(3)   Fraction_lower_bound_2  1
    C115(3)   Fraction_upper_bound_2  1
    C115(3)   R33       -2.4399501835724150e+03
    C116(3)   Fraction_lower_bound_3  1
    C116(3)   Fraction_upper_bound_3  1
    C116(3)   R44       -2.4399501835724150e+03
    C117(3)   Fraction_lower_bound_4  1
    C117(3)   Fraction_upper_bound_4  1
    C117(3)   R55       -2.4399501835724150e+03
    C118(3)   Fraction_lower_bound_5  1
    C118(3)   Fraction_upper_bound_5  1
    C118(3)   R66       -2.4399501835724150e+03
    C119(3)   Fraction_lower_bound_6  1
    C119(3)   Fraction_upper_bound_6  1
    C119(3)   R77       -2.4399501835724150e+03
    C120(3)   Fraction_lower_bound_7  1
    C120(3)   Fraction_upper_bound_7  1
    C120(3)   R88       -2.4399501835724150e+03
    C121(3)   Fraction_lower_bound_8  1
    C121(3)   Fraction_upper_bound_8  1
    C121(3)   R99       -2.4399501835724150e+03
    C122(3)   Fraction_lower_bound_9  1
    C122(3)   Fraction_upper_bound_9  1
    C122(3)   R110      -2.4399501835724150e+03
    C123(3)   Fraction_lower_bound_10  1
    C123(3)   Fraction_upper_bound_10  1
    C123(3)   R121      -2.4399501835724150e+03
    C124(3)   Fraction_lower_bound_11  1
    C124(3)   Fraction_upper_bound_11  1
    C124(3)   R132      -2.4399501835724150e+03
    C125(3)   Fraction_lower_bound_12  1
    C125(3)   Fraction_upper_bound_12  1
    C125(3)   R143      -2.4399501835724150e+03
    C126(3)   Fraction_lower_bound_13  1
    C126(3)   Fraction_upper_bound_13  1
    C126(3)   R154      -2.4399501835724150e+03
    C127(3)   Fraction_lower_bound_14  1
    C127(3)   Fraction_upper_bound_14  1
    C127(3)   R165      -2.4399501835724150e+03
    C128(4)   R11       1
    C128(4)   Constr_Left_0_diff_aux_0  -1
    C128(4)   Constr_Lost_0_diff_aux_0  1
    C128(4)   R14       1
    C129(4)   R22       1
    C129(4)   Constr_Left_0_diff_aux_1  -1
    C129(4)   Constr_Lost_0_diff_aux_1  1
    C129(4)   R25       1
    C130(4)   R33       1
    C130(4)   Constr_Left_0_diff_aux_2  -1
    C130(4)   Constr_Lost_0_diff_aux_2  1
    C130(4)   R36       1
    C131(4)   R44       1
    C131(4)   Constr_Left_0_diff_aux_3  -1
    C131(4)   Constr_Lost_0_diff_aux_3  1
    C131(4)   R47       1
    C132(4)   R55       1
    C132(4)   Constr_Left_0_diff_aux_4  -1
    C132(4)   Constr_Lost_0_diff_aux_4  1
    C132(4)   R58       1
    C133(4)   R66       1
    C133(4)   Constr_Left_0_diff_aux_5  -1
    C133(4)   Constr_Lost_0_diff_aux_5  1
    C133(4)   R69       1
    C134(4)   R77       1
    C134(4)   Constr_Left_0_diff_aux_6  -1
    C134(4)   Constr_Lost_0_diff_aux_6  1
    C134(4)   R80       1
    C135(4)   R88       1
    C135(4)   Constr_Left_0_diff_aux_7  -1
    C135(4)   Constr_Lost_0_diff_aux_7  1
    C135(4)   R91       1
    C136(4)   R99       1
    C136(4)   Constr_Left_0_diff_aux_8  -1
    C136(4)   Constr_Lost_0_diff_aux_8  1
    C136(4)   R102      1
    C137(4)   R110      1
    C137(4)   Constr_Left_0_diff_aux_9  -1
    C137(4)   Constr_Lost_0_diff_aux_9  1
    C137(4)   R113      1
    C138(4)   R121      1
    C138(4)   Constr_Left_0_diff_aux_10  -1
    C138(4)   Constr_Lost_0_diff_aux_10  1
    C138(4)   R124      1
    C139(4)   R132      1
    C139(4)   Constr_Left_0_diff_aux_11  -1
    C139(4)   Constr_Lost_0_diff_aux_11  1
    C139(4)   R135      1
    C140(4)   R143      1
    C140(4)   Constr_Left_0_diff_aux_12  -1
    C140(4)   Constr_Lost_0_diff_aux_12  1
    C140(4)   R146      1
    C141(4)   R154      1
    C141(4)   Constr_Left_0_diff_aux_13  -1
    C141(4)   Constr_Lost_0_diff_aux_13  1
    C141(4)   R157      1
    C142(4)   R165      1
    C142(4)   Constr_Left_0_diff_aux_14  -1
    C142(4)   Constr_Lost_0_diff_aux_14  1
    C142(4)   R168      1
    C143(1)   Constr_Q1_plus_left_0  -1
    C144(1)   Constr_Q1_plus_left_1  -1
    C145(1)   Constr_Q1_plus_left_2  -1
    C146(1)   Constr_Q1_plus_left_3  -1
    C147(1)   Constr_Q1_plus_left_4  -1
    C148(1)   Constr_Q1_plus_left_5  -1
    C149(1)   Constr_Q1_plus_left_6  -1
    C150(1)   Constr_Q1_plus_left_7  -1
    C151(1)   Constr_Q1_plus_left_8  -1
    C152(1)   Constr_Q1_plus_left_9  -1
    C153(1)   Constr_Q1_plus_left_10  -1
    C154(1)   Constr_Q1_plus_left_11  -1
    C155(1)   Constr_Q1_plus_left_12  -1
    C156(1)   Constr_Q1_plus_left_13  -1
    C157(1)   Constr_Q1_plus_left_14  -1
    C158(3)   Constr_Q1_plus_left_0  1
    C158(3)   Constr_Left_1_diff_aux_0  -1
    C158(3)   Constr_Lost_1_diff_aux_0  1
    C159(3)   Constr_Q1_plus_left_1  1
    C159(3)   Constr_Left_1_diff_aux_1  -1
    C159(3)   Constr_Lost_1_diff_aux_1  1
    C160(3)   Constr_Q1_plus_left_2  1
    C160(3)   Constr_Left_1_diff_aux_2  -1
    C160(3)   Constr_Lost_1_diff_aux_2  1
    C161(3)   Constr_Q1_plus_left_3  1
    C161(3)   Constr_Left_1_diff_aux_3  -1
    C161(3)   Constr_Lost_1_diff_aux_3  1
    C162(3)   Constr_Q1_plus_left_4  1
    C162(3)   Constr_Left_1_diff_aux_4  -1
    C162(3)   Constr_Lost_1_diff_aux_4  1
    C163(3)   Constr_Q1_plus_left_5  1
    C163(3)   Constr_Left_1_diff_aux_5  -1
    C163(3)   Constr_Lost_1_diff_aux_5  1
    C164(3)   Constr_Q1_plus_left_6  1
    C164(3)   Constr_Left_1_diff_aux_6  -1
    C164(3)   Constr_Lost_1_diff_aux_6  1
    C165(3)   Constr_Q1_plus_left_7  1
    C165(3)   Constr_Left_1_diff_aux_7  -1
    C165(3)   Constr_Lost_1_diff_aux_7  1
    C166(3)   Constr_Q1_plus_left_8  1
    C166(3)   Constr_Left_1_diff_aux_8  -1
    C166(3)   Constr_Lost_1_diff_aux_8  1
    C167(3)   Constr_Q1_plus_left_9  1
    C167(3)   Constr_Left_1_diff_aux_9  -1
    C167(3)   Constr_Lost_1_diff_aux_9  1
    C168(3)   Constr_Q1_plus_left_10  1
    C168(3)   Constr_Left_1_diff_aux_10  -1
    C168(3)   Constr_Lost_1_diff_aux_10  1
    C169(3)   Constr_Q1_plus_left_11  1
    C169(3)   Constr_Left_1_diff_aux_11  -1
    C169(3)   Constr_Lost_1_diff_aux_11  1
    C170(3)   Constr_Q1_plus_left_12  1
    C170(3)   Constr_Left_1_diff_aux_12  -1
    C170(3)   Constr_Lost_1_diff_aux_12  1
    C171(3)   Constr_Q1_plus_left_13  1
    C171(3)   Constr_Left_1_diff_aux_13  -1
    C171(3)   Constr_Lost_1_diff_aux_13  1
    C172(3)   Constr_Q1_plus_left_14  1
    C172(3)   Constr_Left_1_diff_aux_14  -1
    C172(3)   Constr_Lost_1_diff_aux_14  1
    C173(1)   OBJ       1
    C173(1)   Profit_Constraint_0  1
    C174(1)   OBJ       1
    C174(1)   Profit_Constraint_1  1
    C175(1)   OBJ       1
    C175(1)   Profit_Constraint_2  1
    C176(1)   OBJ       1
    C176(1)   Profit_Constraint_3  1
    C177(1)   OBJ       1
    C177(1)   Profit_Constraint_4  1
    C178(1)   OBJ       1
    C178(1)   Profit_Constraint_5  1
    C179(1)   OBJ       1
    C179(1)   Profit_Constraint_6  1
    C180(1)   OBJ       1
    C180(1)   Profit_Constraint_7  1
    C181(1)   OBJ       1
    C181(1)   Profit_Constraint_8  1
    C182(1)   OBJ       1
    C182(1)   Profit_Constraint_9  1
    C183(1)   OBJ       1
    C183(1)   Profit_Constraint_10  1
    C184(1)   OBJ       1
    C184(1)   Profit_Constraint_11  1
    C185(1)   OBJ       1
    C185(1)   Profit_Constraint_12  1
    C186(1)   OBJ       1
    C186(1)   Profit_Constraint_13  1
    C187(1)   OBJ       1
    C187(1)   Profit_Constraint_14  1
    C188(1)   Constr_Left_0_diff_aux_0  1
    C189(1)   Constr_Lost_0_diff_aux_0  1
    C190(1)   Constr_Left_1_diff_aux_0  1
    C191(1)   Constr_Lost_1_diff_aux_0  1
    C192(1)   R14       1
    C193(1)   Constr_Left_0_diff_aux_1  1
    C194(1)   Constr_Lost_0_diff_aux_1  1
    C195(1)   Constr_Left_1_diff_aux_1  1
    C196(1)   Constr_Lost_1_diff_aux_1  1
    C197(1)   R25       1
    C198(1)   Constr_Left_0_diff_aux_2  1
    C199(1)   Constr_Lost_0_diff_aux_2  1
    C200(1)   Constr_Left_1_diff_aux_2  1
    C201(1)   Constr_Lost_1_diff_aux_2  1
    C202(1)   R36       1
    C203(1)   Constr_Left_0_diff_aux_3  1
    C204(1)   Constr_Lost_0_diff_aux_3  1
    C205(1)   Constr_Left_1_diff_aux_3  1
    C206(1)   Constr_Lost_1_diff_aux_3  1
    C207(1)   R47       1
    C208(1)   Constr_Left_0_diff_aux_4  1
    C209(1)   Constr_Lost_0_diff_aux_4  1
    C210(1)   Constr_Left_1_diff_aux_4  1
    C211(1)   Constr_Lost_1_diff_aux_4  1
    C212(1)   R58       1
    C213(1)   Constr_Left_0_diff_aux_5  1
    C214(1)   Constr_Lost_0_diff_aux_5  1
    C215(1)   Constr_Left_1_diff_aux_5  1
    C216(1)   Constr_Lost_1_diff_aux_5  1
    C217(1)   R69       1
    C218(1)   Constr_Left_0_diff_aux_6  1
    C219(1)   Constr_Lost_0_diff_aux_6  1
    C220(1)   Constr_Left_1_diff_aux_6  1
    C221(1)   Constr_Lost_1_diff_aux_6  1
    C222(1)   R80       1
    C223(1)   Constr_Left_0_diff_aux_7  1
    C224(1)   Constr_Lost_0_diff_aux_7  1
    C225(1)   Constr_Left_1_diff_aux_7  1
    C226(1)   Constr_Lost_1_diff_aux_7  1
    C227(1)   R91       1
    C228(1)   Constr_Left_0_diff_aux_8  1
    C229(1)   Constr_Lost_0_diff_aux_8  1
    C230(1)   Constr_Left_1_diff_aux_8  1
    C231(1)   Constr_Lost_1_diff_aux_8  1
    C232(1)   R102      1
    C233(1)   Constr_Left_0_diff_aux_9  1
    C234(1)   Constr_Lost_0_diff_aux_9  1
    C235(1)   Constr_Left_1_diff_aux_9  1
    C236(1)   Constr_Lost_1_diff_aux_9  1
    C237(1)   R113      1
    C238(1)   Constr_Left_0_diff_aux_10  1
    C239(1)   Constr_Lost_0_diff_aux_10  1
    C240(1)   Constr_Left_1_diff_aux_10  1
    C241(1)   Constr_Lost_1_diff_aux_10  1
    C242(1)   R124      1
    C243(1)   Constr_Left_0_diff_aux_11  1
    C244(1)   Constr_Lost_0_diff_aux_11  1
    C245(1)   Constr_Left_1_diff_aux_11  1
    C246(1)   Constr_Lost_1_diff_aux_11  1
    C247(1)   R135      1
    C248(1)   Constr_Left_0_diff_aux_12  1
    C249(1)   Constr_Lost_0_diff_aux_12  1
    C250(1)   Constr_Left_1_diff_aux_12  1
    C251(1)   Constr_Lost_1_diff_aux_12  1
    C252(1)   R146      1
    C253(1)   Constr_Left_0_diff_aux_13  1
    C254(1)   Constr_Lost_0_diff_aux_13  1
    C255(1)   Constr_Left_1_diff_aux_13  1
    C256(1)   Constr_Lost_1_diff_aux_13  1
    C257(1)   R157      1
    C258(1)   Constr_Left_0_diff_aux_14  1
    C259(1)   Constr_Lost_0_diff_aux_14  1
    C260(1)   Constr_Left_1_diff_aux_14  1
    C261(1)   Constr_Lost_1_diff_aux_14  1
    C262(1)   R168      1
RHS
    RHS1      Fraction_upper_bound_0  1
    RHS1      Constr_Lost_0_diff_aux_0  1.8891507133864670e+03
    RHS1      R14       2.4754099280160426e+03
    RHS1      Constr_Lost_1_diff_aux_0  5.9039504403222782e+02
    RHS1      Fraction_upper_bound_1  1
    RHS1      Constr_Lost_0_diff_aux_1  1.8351872854478297e+03
    RHS1      R25       2.4239265363784170e+03
    RHS1      Constr_Lost_1_diff_aux_1  5.8347024031984779e+02
    RHS1      Fraction_upper_bound_2  1
    RHS1      Constr_Lost_0_diff_aux_2  1.8011566741361576e+03
    RHS1      R36       2.3943523043051682e+03
    RHS1      Constr_Lost_1_diff_aux_2  5.9232679742631012e+02
    RHS1      Fraction_upper_bound_3  1
    RHS1      Constr_Lost_0_diff_aux_3  1.8931806361946246e+03
    RHS1      R47       2.4977617028819486e+03
    RHS1      Constr_Lost_1_diff_aux_3  6.0086639959981153e+02
    RHS1      Fraction_upper_bound_4  1
    RHS1      Constr_Lost_0_diff_aux_4  1.8896944263491523e+03
    RHS1      R58       2.4899619090367964e+03
    RHS1      Constr_Lost_1_diff_aux_4  5.9661555799411485e+02
    RHS1      Fraction_upper_bound_5  1
    RHS1      Constr_Lost_0_diff_aux_5  1.8973656002681821e+03
    RHS1      R69       2.4915376282398552e+03
    RHS1      Constr_Lost_1_diff_aux_5  5.8279172808131489e+02
    RHS1      Fraction_upper_bound_6  1
    RHS1      Constr_Lost_0_diff_aux_6  1.7829052336985540e+03
    RHS1      R80       2.3831592419200788e+03
    RHS1      Constr_Lost_1_diff_aux_6  5.9766528185244681e+02
    RHS1      Fraction_upper_bound_7  1
    RHS1      Constr_Lost_0_diff_aux_7  1.9107740320325629e+03
    RHS1      R91       2.5077011519448274e+03
    RHS1      Constr_Lost_1_diff_aux_7  5.9731526822812123e+02
    RHS1      Fraction_upper_bound_8  1
    RHS1      Constr_Lost_0_diff_aux_8  1.7439762193006341e+03
    RHS1      R102      2.3422192187850487e+03
    RHS1      Constr_Lost_1_diff_aux_8  6.0580589750362083e+02
    RHS1      Fraction_upper_bound_9  1
    RHS1      Constr_Lost_0_diff_aux_9  1.9115768766638221e+03
    RHS1      R113      2.5289959296454367e+03
    RHS1      Constr_Lost_1_diff_aux_9  6.1668785881530630e+02
    RHS1      Fraction_upper_bound_10  1
    RHS1      Constr_Lost_0_diff_aux_10  1.7288582357778912e+03
    RHS1      R124      2.3271905739602466e+03
    RHS1      Constr_Lost_1_diff_aux_10  5.9027203536695720e+02
    RHS1      Fraction_upper_bound_11  1
    RHS1      Constr_Lost_0_diff_aux_11  1.8079469871459032e+03
    RHS1      R135      2.4030964293100319e+03
    RHS1      Constr_Lost_1_diff_aux_11  5.9835379617504748e+02
    RHS1      Fraction_upper_bound_12  1
    RHS1      Constr_Lost_0_diff_aux_12  1.7265065949456819e+03
    RHS1      R146      2.3205066760232257e+03
    RHS1      Constr_Lost_1_diff_aux_12  5.9262925362405474e+02
    RHS1      Fraction_upper_bound_13  1
    RHS1      Constr_Lost_0_diff_aux_13  1.8319022470747591e+03
    RHS1      R157      2.4154669585440156e+03
    RHS1      Constr_Lost_1_diff_aux_13  5.9383220292343185e+02
    RHS1      Fraction_upper_bound_14  1
    RHS1      Constr_Lost_0_diff_aux_14  1.7727578673186363e+03
    RHS1      R168      2.3519043265244736e+03
    RHS1      Constr_Lost_1_diff_aux_14  5.6742606340882185e+02
BOUNDS
 FR BND1      C0(17)  
 FR BND1      C1(2)   
 FR BND1      C2(17)  
 FR BND1      C3(17)  
 FR BND1      C98(1)  
 FR BND1      C99(1)  
 FR BND1      C100(1) 
 FR BND1      C101(1) 
 FR BND1      C102(1) 
 FR BND1      C103(1) 
 FR BND1      C104(1) 
 FR BND1      C105(1) 
 FR BND1      C106(1) 
 FR BND1      C107(1) 
 FR BND1      C108(1) 
 FR BND1      C109(1) 
 FR BND1      C110(1) 
 FR BND1      C111(1) 
 FR BND1      C112(1) 
 UP BND1      C113(3)   1
 UP BND1      C114(3)   1
 UP BND1      C115(3)   1
 UP BND1      C116(3)   1
 UP BND1      C117(3)   1
 UP BND1      C118(3)   1
 UP BND1      C119(3)   1
 UP BND1      C120(3)   1
 UP BND1      C121(3)   1
 UP BND1      C122(3)   1
 UP BND1      C123(3)   1
 UP BND1      C124(3)   1
 UP BND1      C125(3)   1
 UP BND1      C126(3)   1
 UP BND1      C127(3)   1
 UP BND1      C128(4)   2.4409501835724150e+03
 UP BND1      C129(4)   2.4409501835724150e+03
 UP BND1      C130(4)   2.4409501835724150e+03
 UP BND1      C131(4)   2.4409501835724150e+03
 UP BND1      C132(4)   2.4409501835724150e+03
 UP BND1      C133(4)   2.4409501835724150e+03
 UP BND1      C134(4)   2.4409501835724150e+03
 UP BND1      C135(4)   2.4409501835724150e+03
 UP BND1      C136(4)   2.4409501835724150e+03
 UP BND1      C137(4)   2.4409501835724150e+03
 UP BND1      C138(4)   2.4409501835724150e+03
 UP BND1      C139(4)   2.4409501835724150e+03
 UP BND1      C140(4)   2.4409501835724150e+03
 UP BND1      C141(4)   2.4409501835724150e+03
 UP BND1      C142(4)   2.4409501835724150e+03
 FR BND1      C173(1) 
 FR BND1      C174(1) 
 FR BND1      C175(1) 
 FR BND1      C176(1) 
 FR BND1      C177(1) 
 FR BND1      C178(1) 
 FR BND1      C179(1) 
 FR BND1      C180(1) 
 FR BND1      C181(1) 
 FR BND1      C182(1) 
 FR BND1      C183(1) 
 FR BND1      C184(1) 
 FR BND1      C185(1) 
 FR BND1      C186(1) 
 FR BND1      C187(1) 
 FR BND1      C188(1) 
 FR BND1      C189(1) 
 FR BND1      C190(1) 
 FR BND1      C191(1) 
 FR BND1      C192(1) 
 FR BND1      C193(1) 
 FR BND1      C194(1) 
 FR BND1      C195(1) 
 FR BND1      C196(1) 
 FR BND1      C197(1) 
 FR BND1      C198(1) 
 FR BND1      C199(1) 
 FR BND1      C200(1) 
 FR BND1      C201(1) 
 FR BND1      C202(1) 
 FR BND1      C203(1) 
 FR BND1      C204(1) 
 FR BND1      C205(1) 
 FR BND1      C206(1) 
 FR BND1      C207(1) 
 FR BND1      C208(1) 
 FR BND1      C209(1) 
 FR BND1      C210(1) 
 FR BND1      C211(1) 
 FR BND1      C212(1) 
 FR BND1      C213(1) 
 FR BND1      C214(1) 
 FR BND1      C215(1) 
 FR BND1      C216(1) 
 FR BND1      C217(1) 
 FR BND1      C218(1) 
 FR BND1      C219(1) 
 FR BND1      C220(1) 
 FR BND1      C221(1) 
 FR BND1      C222(1) 
 FR BND1      C223(1) 
 FR BND1      C224(1) 
 FR BND1      C225(1) 
 FR BND1      C226(1) 
 FR BND1      C227(1) 
 FR BND1      C228(1) 
 FR BND1      C229(1) 
 FR BND1      C230(1) 
 FR BND1      C231(1) 
 FR BND1      C232(1) 
 FR BND1      C233(1) 
 FR BND1      C234(1) 
 FR BND1      C235(1) 
 FR BND1      C236(1) 
 FR BND1      C237(1) 
 FR BND1      C238(1) 
 FR BND1      C239(1) 
 FR BND1      C240(1) 
 FR BND1      C241(1) 
 FR BND1      C242(1) 
 FR BND1      C243(1) 
 FR BND1      C244(1) 
 FR BND1      C245(1) 
 FR BND1      C246(1) 
 FR BND1      C247(1) 
 FR BND1      C248(1) 
 FR BND1      C249(1) 
 FR BND1      C250(1) 
 FR BND1      C251(1) 
 FR BND1      C252(1) 
 FR BND1      C253(1) 
 FR BND1      C254(1) 
 FR BND1      C255(1) 
 FR BND1      C256(1) 
 FR BND1      C257(1) 
 FR BND1      C258(1) 
 FR BND1      C259(1) 
 FR BND1      C260(1) 
 FR BND1      C261(1) 
 FR BND1      C262(1) 
GENCONS
 LOGISTIC GC0
    Options  0  0.01  0.001  -1  1
    C98(1)  C113(3)
 MIN Constr_Sold_0_min_0
    C8(2)
    C128(4)
    1.8891507133864670e+03
 MAX Constr_Left_0_max_0
    C23(2)
    C188(1)
    0
 MAX Constr_Lost_0_max_0
    C38(1)
    C189(1)
    0
 MAX max_Q1_constr_0
    C143(1)
    C192(1)
    0
 MIN Constr_Sold_1_min_0
    C53(2)
    C158(3)
    5.9039504403222782e+02
 MAX Constr_Left_1_max_0
    C68(1)
    C190(1)
    0
 MAX Constr_Lost_1_max_0
    C83(1)
    C191(1)
    0
 LOGISTIC GC8
    Options  0  0.01  0.001  -1  1
    C99(1)  C114(3)
 MIN Constr_Sold_0_min_1
    C9(2)
    C129(4)
    1.8351872854478297e+03
 MAX Constr_Left_0_max_1
    C24(2)
    C193(1)
    0
 MAX Constr_Lost_0_max_1
    C39(1)
    C194(1)
    0
 MAX max_Q1_constr_1
    C144(1)
    C197(1)
    0
 MIN Constr_Sold_1_min_1
    C54(2)
    C159(3)
    5.8347024031984779e+02
 MAX Constr_Left_1_max_1
    C69(1)
    C195(1)
    0
 MAX Constr_Lost_1_max_1
    C84(1)
    C196(1)
    0
 LOGISTIC GC16
    Options  0  0.01  0.001  -1  1
    C100(1)  C115(3)
 MIN Constr_Sold_0_min_2
    C10(2)
    C130(4)
    1.8011566741361576e+03
 MAX Constr_Left_0_max_2
    C25(2)
    C198(1)
    0
 MAX Constr_Lost_0_max_2
    C40(1)
    C199(1)
    0
 MAX max_Q1_constr_2
    C145(1)
    C202(1)
    0
 MIN Constr_Sold_1_min_2
    C55(2)
    C160(3)
    5.9232679742631012e+02
 MAX Constr_Left_1_max_2
    C70(1)
    C200(1)
    0
 MAX Constr_Lost_1_max_2
    C85(1)
    C201(1)
    0
 LOGISTIC GC24
    Options  0  0.01  0.001  -1  1
    C101(1)  C116(3)
 MIN Constr_Sold_0_min_3
    C11(2)
    C131(4)
    1.8931806361946246e+03
 MAX Constr_Left_0_max_3
    C26(2)
    C203(1)
    0
 MAX Constr_Lost_0_max_3
    C41(1)
    C204(1)
    0
 MAX max_Q1_constr_3
    C146(1)
    C207(1)
    0
 MIN Constr_Sold_1_min_3
    C56(2)
    C161(3)
    6.0086639959981153e+02
 MAX Constr_Left_1_max_3
    C71(1)
    C205(1)
    0
 MAX Constr_Lost_1_max_3
    C86(1)
    C206(1)
    0
 LOGISTIC GC32
    Options  0  0.01  0.001  -1  1
    C102(1)  C117(3)
 MIN Constr_Sold_0_min_4
    C12(2)
    C132(4)
    1.8896944263491523e+03
 MAX Constr_Left_0_max_4
    C27(2)
    C208(1)
    0
 MAX Constr_Lost_0_max_4
    C42(1)
    C209(1)
    0
 MAX max_Q1_constr_4
    C147(1)
    C212(1)
    0
 MIN Constr_Sold_1_min_4
    C57(2)
    C162(3)
    5.9661555799411485e+02
 MAX Constr_Left_1_max_4
    C72(1)
    C210(1)
    0
 MAX Constr_Lost_1_max_4
    C87(1)
    C211(1)
    0
 LOGISTIC GC40
    Options  0  0.01  0.001  -1  1
    C103(1)  C118(3)
 MIN Constr_Sold_0_min_5
    C13(2)
    C133(4)
    1.8973656002681821e+03
 MAX Constr_Left_0_max_5
    C28(2)
    C213(1)
    0
 MAX Constr_Lost_0_max_5
    C43(1)
    C214(1)
    0
 MAX max_Q1_constr_5
    C148(1)
    C217(1)
    0
 MIN Constr_Sold_1_min_5
    C58(2)
    C163(3)
    5.8279172808131489e+02
 MAX Constr_Left_1_max_5
    C73(1)
    C215(1)
    0
 MAX Constr_Lost_1_max_5
    C88(1)
    C216(1)
    0
 LOGISTIC GC48
    Options  0  0.01  0.001  -1  1
    C104(1)  C119(3)
 MIN Constr_Sold_0_min_6
    C14(2)
    C134(4)
    1.7829052336985540e+03
 MAX Constr_Left_0_max_6
    C29(2)
    C218(1)
    0
 MAX Constr_Lost_0_max_6
    C44(1)
    C219(1)
    0
 MAX max_Q1_constr_6
    C149(1)
    C222(1)
    0
 MIN Constr_Sold_1_min_6
    C59(2)
    C164(3)
    5.9766528185244681e+02
 MAX Constr_Left_1_max_6
    C74(1)
    C220(1)
    0
 MAX Constr_Lost_1_max_6
    C89(1)
    C221(1)
    0
 LOGISTIC GC56
    Options  0  0.01  0.001  -1  1
    C105(1)  C120(3)
 MIN Constr_Sold_0_min_7
    C15(2)
    C135(4)
    1.9107740320325629e+03
 MAX Constr_Left_0_max_7
    C30(2)
    C223(1)
    0
 MAX Constr_Lost_0_max_7
    C45(1)
    C224(1)
    0
 MAX max_Q1_constr_7
    C150(1)
    C227(1)
    0
 MIN Constr_Sold_1_min_7
    C60(2)
    C165(3)
    5.9731526822812123e+02
 MAX Constr_Left_1_max_7
    C75(1)
    C225(1)
    0
 MAX Constr_Lost_1_max_7
    C90(1)
    C226(1)
    0
 LOGISTIC GC64
    Options  0  0.01  0.001  -1  1
    C106(1)  C121(3)
 MIN Constr_Sold_0_min_8
    C16(2)
    C136(4)
    1.7439762193006341e+03
 MAX Constr_Left_0_max_8
    C31(2)
    C228(1)
    0
 MAX Constr_Lost_0_max_8
    C46(1)
    C229(1)
    0
 MAX max_Q1_constr_8
    C151(1)
    C232(1)
    0
 MIN Constr_Sold_1_min_8
    C61(2)
    C166(3)
    6.0580589750362083e+02
 MAX Constr_Left_1_max_8
    C76(1)
    C230(1)
    0
 MAX Constr_Lost_1_max_8
    C91(1)
    C231(1)
    0
 LOGISTIC GC72
    Options  0  0.01  0.001  -1  1
    C107(1)  C122(3)
 MIN Constr_Sold_0_min_9
    C17(2)
    C137(4)
    1.9115768766638221e+03
 MAX Constr_Left_0_max_9
    C32(2)
    C233(1)
    0
 MAX Constr_Lost_0_max_9
    C47(1)
    C234(1)
    0
 MAX max_Q1_constr_9
    C152(1)
    C237(1)
    0
 MIN Constr_Sold_1_min_9
    C62(2)
    C167(3)
    6.1668785881530630e+02
 MAX Constr_Left_1_max_9
    C77(1)
    C235(1)
    0
 MAX Constr_Lost_1_max_9
    C92(1)
    C236(1)
    0
 LOGISTIC GC80
    Options  0  0.01  0.001  -1  1
    C108(1)  C123(3)
 MIN Constr_Sold_0_min_10
    C18(2)
    C138(4)
    1.7288582357778912e+03
 MAX Constr_Left_0_max_10
    C33(2)
    C238(1)
    0
 MAX Constr_Lost_0_max_10
    C48(1)
    C239(1)
    0
 MAX max_Q1_constr_10
    C153(1)
    C242(1)
    0
 MIN Constr_Sold_1_min_10
    C63(2)
    C168(3)
    5.9027203536695720e+02
 MAX Constr_Left_1_max_10
    C78(1)
    C240(1)
    0
 MAX Constr_Lost_1_max_10
    C93(1)
    C241(1)
    0
 LOGISTIC GC88
    Options  0  0.01  0.001  -1  1
    C109(1)  C124(3)
 MIN Constr_Sold_0_min_11
    C19(2)
    C139(4)
    1.8079469871459032e+03
 MAX Constr_Left_0_max_11
    C34(2)
    C243(1)
    0
 MAX Constr_Lost_0_max_11
    C49(1)
    C244(1)
    0
 MAX max_Q1_constr_11
    C154(1)
    C247(1)
    0
 MIN Constr_Sold_1_min_11
    C64(2)
    C169(3)
    5.9835379617504748e+02
 MAX Constr_Left_1_max_11
    C79(1)
    C245(1)
    0
 MAX Constr_Lost_1_max_11
    C94(1)
    C246(1)
    0
 LOGISTIC GC96
    Options  0  0.01  0.001  -1  1
    C110(1)  C125(3)
 MIN Constr_Sold_0_min_12
    C20(2)
    C140(4)
    1.7265065949456819e+03
 MAX Constr_Left_0_max_12
    C35(2)
    C248(1)
    0
 MAX Constr_Lost_0_max_12
    C50(1)
    C249(1)
    0
 MAX max_Q1_constr_12
    C155(1)
    C252(1)
    0
 MIN Constr_Sold_1_min_12
    C65(2)
    C170(3)
    5.9262925362405474e+02
 MAX Constr_Left_1_max_12
    C80(1)
    C250(1)
    0
 MAX Constr_Lost_1_max_12
    C95(1)
    C251(1)
    0
 LOGISTIC GC104
    Options  0  0.01  0.001  -1  1
    C111(1)  C126(3)
 MIN Constr_Sold_0_min_13
    C21(2)
    C141(4)
    1.8319022470747591e+03
 MAX Constr_Left_0_max_13
    C36(2)
    C253(1)
    0
 MAX Constr_Lost_0_max_13
    C51(1)
    C254(1)
    0
 MAX max_Q1_constr_13
    C156(1)
    C257(1)
    0
 MIN Constr_Sold_1_min_13
    C66(2)
    C171(3)
    5.9383220292343185e+02
 MAX Constr_Left_1_max_13
    C81(1)
    C255(1)
    0
 MAX Constr_Lost_1_max_13
    C96(1)
    C256(1)
    0
 LOGISTIC GC112
    Options  0  0.01  0.001  -1  1
    C112(1)  C127(3)
 MIN Constr_Sold_0_min_14
    C22(2)
    C142(4)
    1.7727578673186363e+03
 MAX Constr_Left_0_max_14
    C37(2)
    C258(1)
    0
 MAX Constr_Lost_0_max_14
    C52(1)
    C259(1)
    0
 MAX max_Q1_constr_14
    C157(1)
    C262(1)
    0
 MIN Constr_Sold_1_min_14
    C67(2)
    C172(3)
    5.6742606340882185e+02
 MAX Constr_Left_1_max_14
    C82(1)
    C260(1)
    0
 MAX Constr_Lost_1_max_14
    C97(1)
    C261(1)
    0
ENDATA
